3 
4 
5  04 26 51 
6  11 30 44 59 
7  13 29 44 59 
8  14 29 44 59 
9  13 28 43 58 
10  13 28 43 58 
11  13 28 43 58 
12  13 28 43 58 
13  14 29 44 59 
14  14 29 44 
15  00 15 30 45 
16  00 15 30 45 
17  00 15 30 45 
18  00 15 30 45 
19  00 15 30 45 
20  00 15 31 45 
21  00 15 30 45 
22  00 17 31 47 
23  11 
0 
